; benchmark generated from python API
(set-info :status unknown)
(declare-fun cell_1_1 () Int)
(declare-fun cell_1_3 () Int)
(declare-fun cell_2_6 () Int)
(declare-fun cell_2_8 () Int)
(declare-fun cell_3_4 () Int)
(declare-fun cell_3_8 () Int)
(declare-fun cell_4_6 () Int)
(declare-fun cell_4_9 () Int)
(declare-fun cell_5_1 () Int)
(declare-fun cell_5_9 () Int)
(declare-fun cell_6_3 () Int)
(declare-fun cell_7_5 () Int)
(declare-fun cell_8_2 () Int)
(declare-fun cell_9_7 () Int)
(declare-fun cell_2_1 () Int)
(declare-fun cell_3_1 () Int)
(declare-fun cell_4_1 () Int)
(declare-fun cell_6_1 () Int)
(declare-fun cell_7_1 () Int)
(declare-fun cell_8_1 () Int)
(declare-fun cell_9_1 () Int)
(declare-fun cell_1_2 () Int)
(declare-fun cell_2_2 () Int)
(declare-fun cell_3_2 () Int)
(declare-fun cell_4_2 () Int)
(declare-fun cell_5_2 () Int)
(declare-fun cell_6_2 () Int)
(declare-fun cell_7_2 () Int)
(declare-fun cell_9_2 () Int)
(declare-fun cell_2_3 () Int)
(declare-fun cell_3_3 () Int)
(declare-fun cell_4_3 () Int)
(declare-fun cell_5_3 () Int)
(declare-fun cell_7_3 () Int)
(declare-fun cell_8_3 () Int)
(declare-fun cell_9_3 () Int)
(declare-fun cell_1_4 () Int)
(declare-fun cell_2_4 () Int)
(declare-fun cell_4_4 () Int)
(declare-fun cell_5_4 () Int)
(declare-fun cell_6_4 () Int)
(declare-fun cell_7_4 () Int)
(declare-fun cell_8_4 () Int)
(declare-fun cell_9_4 () Int)
(declare-fun cell_1_5 () Int)
(declare-fun cell_2_5 () Int)
(declare-fun cell_3_5 () Int)
(declare-fun cell_4_5 () Int)
(declare-fun cell_5_5 () Int)
(declare-fun cell_6_5 () Int)
(declare-fun cell_8_5 () Int)
(declare-fun cell_9_5 () Int)
(declare-fun cell_1_6 () Int)
(declare-fun cell_3_6 () Int)
(declare-fun cell_5_6 () Int)
(declare-fun cell_6_6 () Int)
(declare-fun cell_7_6 () Int)
(declare-fun cell_8_6 () Int)
(declare-fun cell_9_6 () Int)
(declare-fun cell_1_7 () Int)
(declare-fun cell_2_7 () Int)
(declare-fun cell_3_7 () Int)
(declare-fun cell_4_7 () Int)
(declare-fun cell_5_7 () Int)
(declare-fun cell_6_7 () Int)
(declare-fun cell_7_7 () Int)
(declare-fun cell_8_7 () Int)
(declare-fun cell_1_8 () Int)
(declare-fun cell_4_8 () Int)
(declare-fun cell_5_8 () Int)
(declare-fun cell_6_8 () Int)
(declare-fun cell_7_8 () Int)
(declare-fun cell_8_8 () Int)
(declare-fun cell_9_8 () Int)
(declare-fun cell_1_9 () Int)
(declare-fun cell_2_9 () Int)
(declare-fun cell_3_9 () Int)
(declare-fun cell_6_9 () Int)
(declare-fun cell_7_9 () Int)
(declare-fun cell_8_9 () Int)
(declare-fun cell_9_9 () Int)
(assert
 (= cell_1_1 1))
(assert
 (= cell_1_3 2))
(assert
 (= cell_2_6 2))
(assert
 (= cell_2_8 1))
(assert
 (= cell_3_4 1))
(assert
 (= cell_3_8 2))
(assert
 (= cell_4_6 1))
(assert
 (= cell_4_9 2))
(assert
 (= cell_5_1 2))
(assert
 (= cell_5_9 1))
(assert
 (= cell_6_3 1))
(assert
 (= cell_7_5 1))
(assert
 (= cell_8_2 1))
(assert
 (= cell_9_7 1))
(assert
 (let (($x2986 (= cell_1_1 1)))
 (or $x2986 (= cell_1_1 2) (= cell_1_1 3) (= cell_1_1 4) (= cell_1_1 5) (= cell_1_1 6) (= cell_1_1 7) (= cell_1_1 8) (= cell_1_1 9))))
(assert
 (let (($x4071 (= cell_2_1 9)))
 (let (($x7164 (= cell_2_1 8)))
 (let (($x1540 (= cell_2_1 7)))
 (let (($x1560 (= cell_2_1 6)))
 (let (($x1415 (= cell_2_1 5)))
 (let (($x3855 (= cell_2_1 4)))
 (let (($x6832 (= cell_2_1 3)))
 (let (($x5323 (= cell_2_1 2)))
 (let (($x7066 (= cell_2_1 1)))
 (or $x7066 $x5323 $x6832 $x3855 $x1415 $x1560 $x1540 $x7164 $x4071)))))))))))
(assert
 (let (($x4848 (= cell_3_1 9)))
 (let (($x9199 (= cell_3_1 8)))
 (let (($x1827 (= cell_3_1 7)))
 (let (($x4111 (= cell_3_1 6)))
 (let (($x5576 (= cell_3_1 5)))
 (let (($x9834 (= cell_3_1 4)))
 (let (($x9542 (= cell_3_1 3)))
 (let (($x4986 (= cell_3_1 2)))
 (let (($x8611 (= cell_3_1 1)))
 (or $x8611 $x4986 $x9542 $x9834 $x5576 $x4111 $x1827 $x9199 $x4848)))))))))))
(assert
 (let (($x5331 (= cell_4_1 9)))
 (let (($x3769 (= cell_4_1 8)))
 (let (($x4634 (= cell_4_1 7)))
 (let (($x5835 (= cell_4_1 6)))
 (let (($x8312 (= cell_4_1 5)))
 (let (($x611 (= cell_4_1 4)))
 (let (($x9991 (= cell_4_1 3)))
 (let (($x1744 (= cell_4_1 2)))
 (let (($x8134 (= cell_4_1 1)))
 (or $x8134 $x1744 $x9991 $x611 $x8312 $x5835 $x4634 $x3769 $x5331)))))))))))
(assert
 (let (($x1478 (= cell_5_1 2)))
 (or (= cell_5_1 1) $x1478 (= cell_5_1 3) (= cell_5_1 4) (= cell_5_1 5) (= cell_5_1 6) (= cell_5_1 7) (= cell_5_1 8) (= cell_5_1 9))))
(assert
 (let (($x7337 (= cell_6_1 9)))
 (let (($x9168 (= cell_6_1 8)))
 (let (($x3551 (= cell_6_1 7)))
 (let (($x1125 (= cell_6_1 6)))
 (let (($x3000 (= cell_6_1 5)))
 (let (($x7875 (= cell_6_1 4)))
 (let (($x1986 (= cell_6_1 3)))
 (let (($x7385 (= cell_6_1 2)))
 (let (($x7586 (= cell_6_1 1)))
 (or $x7586 $x7385 $x1986 $x7875 $x3000 $x1125 $x3551 $x9168 $x7337)))))))))))
(assert
 (let (($x9318 (= cell_7_1 9)))
 (let (($x3414 (= cell_7_1 8)))
 (let (($x3928 (= cell_7_1 7)))
 (let (($x7286 (= cell_7_1 6)))
 (let (($x2505 (= cell_7_1 5)))
 (let (($x4105 (= cell_7_1 4)))
 (let (($x7972 (= cell_7_1 3)))
 (let (($x3157 (= cell_7_1 2)))
 (let (($x3110 (= cell_7_1 1)))
 (or $x3110 $x3157 $x7972 $x4105 $x2505 $x7286 $x3928 $x3414 $x9318)))))))))))
(assert
 (let (($x626 (= cell_8_1 9)))
 (let (($x6957 (= cell_8_1 8)))
 (let (($x2288 (= cell_8_1 7)))
 (let (($x4130 (= cell_8_1 6)))
 (let (($x1471 (= cell_8_1 5)))
 (let (($x2324 (= cell_8_1 4)))
 (let (($x4040 (= cell_8_1 3)))
 (let (($x9251 (= cell_8_1 2)))
 (let (($x1523 (= cell_8_1 1)))
 (or $x1523 $x9251 $x4040 $x2324 $x1471 $x4130 $x2288 $x6957 $x626)))))))))))
(assert
 (let (($x273 (= cell_9_1 9)))
 (let (($x1256 (= cell_9_1 8)))
 (let (($x161 (= cell_9_1 7)))
 (let (($x1429 (= cell_9_1 6)))
 (let (($x2970 (= cell_9_1 5)))
 (let (($x8299 (= cell_9_1 4)))
 (let (($x8683 (= cell_9_1 3)))
 (let (($x2662 (= cell_9_1 2)))
 (let (($x3599 (= cell_9_1 1)))
 (or $x3599 $x2662 $x8683 $x8299 $x2970 $x1429 $x161 $x1256 $x273)))))))))))
(assert
 (let (($x1319 (= cell_1_2 9)))
 (let (($x1362 (= cell_1_2 8)))
 (let (($x5907 (= cell_1_2 7)))
 (let (($x3136 (= cell_1_2 6)))
 (let (($x9621 (= cell_1_2 5)))
 (let (($x4217 (= cell_1_2 4)))
 (let (($x9344 (= cell_1_2 3)))
 (let (($x2282 (= cell_1_2 2)))
 (let (($x9236 (= cell_1_2 1)))
 (or $x9236 $x2282 $x9344 $x4217 $x9621 $x3136 $x5907 $x1362 $x1319)))))))))))
(assert
 (let (($x1829 (= cell_2_2 9)))
 (let (($x9984 (= cell_2_2 8)))
 (let (($x721 (= cell_2_2 7)))
 (let (($x3600 (= cell_2_2 6)))
 (let (($x9085 (= cell_2_2 5)))
 (let (($x4800 (= cell_2_2 4)))
 (let (($x4840 (= cell_2_2 3)))
 (let (($x3954 (= cell_2_2 2)))
 (let (($x1797 (= cell_2_2 1)))
 (or $x1797 $x3954 $x4840 $x4800 $x9085 $x3600 $x721 $x9984 $x1829)))))))))))
(assert
 (let (($x9087 (= cell_3_2 9)))
 (let (($x4620 (= cell_3_2 8)))
 (let (($x3437 (= cell_3_2 7)))
 (let (($x7129 (= cell_3_2 6)))
 (let (($x2507 (= cell_3_2 5)))
 (let (($x2843 (= cell_3_2 4)))
 (let (($x6887 (= cell_3_2 3)))
 (let (($x10211 (= cell_3_2 2)))
 (let (($x2528 (= cell_3_2 1)))
 (or $x2528 $x10211 $x6887 $x2843 $x2507 $x7129 $x3437 $x4620 $x9087)))))))))))
(assert
 (let (($x727 (= cell_4_2 9)))
 (let (($x639 (= cell_4_2 8)))
 (let (($x7694 (= cell_4_2 7)))
 (let (($x6155 (= cell_4_2 6)))
 (let (($x3094 (= cell_4_2 5)))
 (let (($x7070 (= cell_4_2 4)))
 (let (($x6345 (= cell_4_2 3)))
 (let (($x1357 (= cell_4_2 2)))
 (let (($x4404 (= cell_4_2 1)))
 (or $x4404 $x1357 $x6345 $x7070 $x3094 $x6155 $x7694 $x639 $x727)))))))))))
(assert
 (let (($x7468 (= cell_5_2 9)))
 (let (($x5839 (= cell_5_2 8)))
 (let (($x1989 (= cell_5_2 7)))
 (let (($x7348 (= cell_5_2 6)))
 (let (($x7157 (= cell_5_2 5)))
 (let (($x2002 (= cell_5_2 4)))
 (let (($x6084 (= cell_5_2 3)))
 (let (($x6387 (= cell_5_2 2)))
 (let (($x3914 (= cell_5_2 1)))
 (or $x3914 $x6387 $x6084 $x2002 $x7157 $x7348 $x1989 $x5839 $x7468)))))))))))
(assert
 (let (($x605 (= cell_6_2 9)))
 (let (($x6858 (= cell_6_2 8)))
 (let (($x6732 (= cell_6_2 7)))
 (let (($x2671 (= cell_6_2 6)))
 (let (($x8187 (= cell_6_2 5)))
 (let (($x7279 (= cell_6_2 4)))
 (let (($x9293 (= cell_6_2 3)))
 (let (($x6148 (= cell_6_2 2)))
 (let (($x5546 (= cell_6_2 1)))
 (or $x5546 $x6148 $x9293 $x7279 $x8187 $x2671 $x6732 $x6858 $x605)))))))))))
(assert
 (let (($x3444 (= cell_7_2 9)))
 (let (($x8352 (= cell_7_2 8)))
 (let (($x7441 (= cell_7_2 7)))
 (let (($x4992 (= cell_7_2 6)))
 (let (($x8456 (= cell_7_2 5)))
 (let (($x4553 (= cell_7_2 4)))
 (let (($x956 (= cell_7_2 3)))
 (let (($x8941 (= cell_7_2 2)))
 (let (($x9444 (= cell_7_2 1)))
 (or $x9444 $x8941 $x956 $x4553 $x8456 $x4992 $x7441 $x8352 $x3444)))))))))))
(assert
 (let (($x6441 (= cell_8_2 1)))
 (or $x6441 (= cell_8_2 2) (= cell_8_2 3) (= cell_8_2 4) (= cell_8_2 5) (= cell_8_2 6) (= cell_8_2 7) (= cell_8_2 8) (= cell_8_2 9))))
(assert
 (let (($x7297 (= cell_9_2 9)))
 (let (($x2910 (= cell_9_2 8)))
 (let (($x927 (= cell_9_2 7)))
 (let (($x5229 (= cell_9_2 6)))
 (let (($x468 (= cell_9_2 5)))
 (let (($x4331 (= cell_9_2 4)))
 (let (($x6277 (= cell_9_2 3)))
 (let (($x2975 (= cell_9_2 2)))
 (let (($x8652 (= cell_9_2 1)))
 (or $x8652 $x2975 $x6277 $x4331 $x468 $x5229 $x927 $x2910 $x7297)))))))))))
(assert
 (let (($x7892 (= cell_1_3 2)))
 (or (= cell_1_3 1) $x7892 (= cell_1_3 3) (= cell_1_3 4) (= cell_1_3 5) (= cell_1_3 6) (= cell_1_3 7) (= cell_1_3 8) (= cell_1_3 9))))
(assert
 (let (($x1110 (= cell_2_3 9)))
 (let (($x6153 (= cell_2_3 8)))
 (let (($x4977 (= cell_2_3 7)))
 (let (($x644 (= cell_2_3 6)))
 (let (($x7160 (= cell_2_3 5)))
 (let (($x690 (= cell_2_3 4)))
 (let (($x4267 (= cell_2_3 3)))
 (let (($x7510 (= cell_2_3 2)))
 (let (($x5743 (= cell_2_3 1)))
 (or $x5743 $x7510 $x4267 $x690 $x7160 $x644 $x4977 $x6153 $x1110)))))))))))
(assert
 (let (($x5762 (= cell_3_3 9)))
 (let (($x5276 (= cell_3_3 8)))
 (let (($x9891 (= cell_3_3 7)))
 (let (($x6213 (= cell_3_3 6)))
 (let (($x9865 (= cell_3_3 5)))
 (let (($x10022 (= cell_3_3 4)))
 (let (($x7172 (= cell_3_3 3)))
 (let (($x2796 (= cell_3_3 2)))
 (let (($x8813 (= cell_3_3 1)))
 (or $x8813 $x2796 $x7172 $x10022 $x9865 $x6213 $x9891 $x5276 $x5762)))))))))))
(assert
 (let (($x4983 (= cell_4_3 9)))
 (let (($x9652 (= cell_4_3 8)))
 (let (($x1157 (= cell_4_3 7)))
 (let (($x6139 (= cell_4_3 6)))
 (let (($x7323 (= cell_4_3 5)))
 (let (($x4353 (= cell_4_3 4)))
 (let (($x6757 (= cell_4_3 3)))
 (let (($x1344 (= cell_4_3 2)))
 (let (($x9711 (= cell_4_3 1)))
 (or $x9711 $x1344 $x6757 $x4353 $x7323 $x6139 $x1157 $x9652 $x4983)))))))))))
(assert
 (let (($x8393 (= cell_5_3 9)))
 (let (($x1971 (= cell_5_3 8)))
 (let (($x9020 (= cell_5_3 7)))
 (let (($x4974 (= cell_5_3 6)))
 (let (($x5010 (= cell_5_3 5)))
 (let (($x9862 (= cell_5_3 4)))
 (let (($x8474 (= cell_5_3 3)))
 (let (($x6233 (= cell_5_3 2)))
 (let (($x8717 (= cell_5_3 1)))
 (or $x8717 $x6233 $x8474 $x9862 $x5010 $x4974 $x9020 $x1971 $x8393)))))))))))
(assert
 (let (($x7790 (= cell_6_3 1)))
 (or $x7790 (= cell_6_3 2) (= cell_6_3 3) (= cell_6_3 4) (= cell_6_3 5) (= cell_6_3 6) (= cell_6_3 7) (= cell_6_3 8) (= cell_6_3 9))))
(assert
 (let (($x4329 (= cell_7_3 9)))
 (let (($x6181 (= cell_7_3 8)))
 (let (($x6754 (= cell_7_3 7)))
 (let (($x1904 (= cell_7_3 6)))
 (let (($x1921 (= cell_7_3 5)))
 (let (($x1242 (= cell_7_3 4)))
 (let (($x1331 (= cell_7_3 3)))
 (let (($x3405 (= cell_7_3 2)))
 (let (($x8615 (= cell_7_3 1)))
 (or $x8615 $x3405 $x1331 $x1242 $x1921 $x1904 $x6754 $x6181 $x4329)))))))))))
(assert
 (let (($x6602 (= cell_8_3 2)))
 (let (($x3624 (= cell_8_3 1)))
 (or $x3624 $x6602 (= cell_8_3 3) (= cell_8_3 4) (= cell_8_3 5) (= cell_8_3 6) (= cell_8_3 7) (= cell_8_3 8) (= cell_8_3 9)))))
(assert
 (let (($x6863 (= cell_9_3 9)))
 (let (($x8077 (= cell_9_3 8)))
 (let (($x154 (= cell_9_3 7)))
 (let (($x5814 (= cell_9_3 6)))
 (let (($x7969 (= cell_9_3 5)))
 (let (($x6282 (= cell_9_3 4)))
 (let (($x8223 (= cell_9_3 3)))
 (let (($x8826 (= cell_9_3 2)))
 (let (($x3020 (= cell_9_3 1)))
 (or $x3020 $x8826 $x8223 $x6282 $x7969 $x5814 $x154 $x8077 $x6863)))))))))))
(assert
 (let (($x8519 (= cell_1_4 9)))
 (let (($x6366 (= cell_1_4 8)))
 (let (($x8215 (= cell_1_4 7)))
 (let (($x8720 (= cell_1_4 6)))
 (let (($x4647 (= cell_1_4 5)))
 (let (($x9921 (= cell_1_4 4)))
 (let (($x8367 (= cell_1_4 3)))
 (let (($x6390 (= cell_1_4 2)))
 (let (($x7608 (= cell_1_4 1)))
 (or $x7608 $x6390 $x8367 $x9921 $x4647 $x8720 $x8215 $x6366 $x8519)))))))))))
(assert
 (let (($x5060 (= cell_2_4 9)))
 (let (($x4484 (= cell_2_4 8)))
 (let (($x3708 (= cell_2_4 7)))
 (let (($x9097 (= cell_2_4 6)))
 (let (($x40 (= cell_2_4 5)))
 (let (($x8854 (= cell_2_4 4)))
 (let (($x1294 (= cell_2_4 3)))
 (let (($x185 (= cell_2_4 2)))
 (let (($x8913 (= cell_2_4 1)))
 (or $x8913 $x185 $x1294 $x8854 $x40 $x9097 $x3708 $x4484 $x5060)))))))))))
(assert
 (let (($x5837 (= cell_3_4 1)))
 (or $x5837 (= cell_3_4 2) (= cell_3_4 3) (= cell_3_4 4) (= cell_3_4 5) (= cell_3_4 6) (= cell_3_4 7) (= cell_3_4 8) (= cell_3_4 9))))
(assert
 (let (($x6170 (= cell_4_4 9)))
 (let (($x7262 (= cell_4_4 8)))
 (let (($x7300 (= cell_4_4 7)))
 (let (($x4264 (= cell_4_4 6)))
 (let (($x1689 (= cell_4_4 5)))
 (let (($x1338 (= cell_4_4 4)))
 (let (($x9022 (= cell_4_4 3)))
 (let (($x6584 (= cell_4_4 2)))
 (let (($x4230 (= cell_4_4 1)))
 (or $x4230 $x6584 $x9022 $x1338 $x1689 $x4264 $x7300 $x7262 $x6170)))))))))))
(assert
 (let (($x795 (= cell_5_4 9)))
 (let (($x64 (= cell_5_4 8)))
 (let (($x5450 (= cell_5_4 7)))
 (let (($x8848 (= cell_5_4 6)))
 (let (($x4043 (= cell_5_4 5)))
 (let (($x7375 (= cell_5_4 4)))
 (let (($x10144 (= cell_5_4 3)))
 (let (($x1626 (= cell_5_4 2)))
 (let (($x1345 (= cell_5_4 1)))
 (or $x1345 $x1626 $x10144 $x7375 $x4043 $x8848 $x5450 $x64 $x795)))))))))))
(assert
 (let (($x6293 (= cell_6_4 2)))
 (let (($x2994 (= cell_6_4 1)))
 (or $x2994 $x6293 (= cell_6_4 3) (= cell_6_4 4) (= cell_6_4 5) (= cell_6_4 6) (= cell_6_4 7) (= cell_6_4 8) (= cell_6_4 9)))))
(assert
 (let (($x9155 (= cell_7_4 9)))
 (let (($x2529 (= cell_7_4 8)))
 (let (($x9096 (= cell_7_4 7)))
 (let (($x814 (= cell_7_4 6)))
 (let (($x3369 (= cell_7_4 5)))
 (let (($x1368 (= cell_7_4 4)))
 (let (($x1398 (= cell_7_4 3)))
 (let (($x1521 (= cell_7_4 2)))
 (let (($x6524 (= cell_7_4 1)))
 (or $x6524 $x1521 $x1398 $x1368 $x3369 $x814 $x9096 $x2529 $x9155)))))))))))
(assert
 (let (($x536 (= cell_8_4 2)))
 (let (($x7079 (= cell_8_4 1)))
 (or $x7079 $x536 (= cell_8_4 3) (= cell_8_4 4) (= cell_8_4 5) (= cell_8_4 6) (= cell_8_4 7) (= cell_8_4 8) (= cell_8_4 9)))))
(assert
 (let (($x4126 (= cell_9_4 9)))
 (let (($x8672 (= cell_9_4 8)))
 (let (($x4109 (= cell_9_4 7)))
 (let (($x1665 (= cell_9_4 6)))
 (let (($x3329 (= cell_9_4 5)))
 (let (($x3689 (= cell_9_4 4)))
 (let (($x430 (= cell_9_4 3)))
 (let (($x8085 (= cell_9_4 2)))
 (let (($x1349 (= cell_9_4 1)))
 (or $x1349 $x8085 $x430 $x3689 $x3329 $x1665 $x4109 $x8672 $x4126)))))))))))
(assert
 (let (($x5833 (= cell_1_5 9)))
 (let (($x3214 (= cell_1_5 8)))
 (let (($x6793 (= cell_1_5 7)))
 (let (($x1894 (= cell_1_5 6)))
 (let (($x1499 (= cell_1_5 5)))
 (let (($x8081 (= cell_1_5 4)))
 (let (($x7813 (= cell_1_5 3)))
 (let (($x2686 (= cell_1_5 2)))
 (let (($x2395 (= cell_1_5 1)))
 (or $x2395 $x2686 $x7813 $x8081 $x1499 $x1894 $x6793 $x3214 $x5833)))))))))))
(assert
 (let (($x2050 (= cell_2_5 9)))
 (let (($x8526 (= cell_2_5 8)))
 (let (($x345 (= cell_2_5 7)))
 (let (($x3296 (= cell_2_5 6)))
 (let (($x2688 (= cell_2_5 5)))
 (let (($x325 (= cell_2_5 4)))
 (let (($x628 (= cell_2_5 3)))
 (let (($x6205 (= cell_2_5 2)))
 (let (($x794 (= cell_2_5 1)))
 (or $x794 $x6205 $x628 $x325 $x2688 $x3296 $x345 $x8526 $x2050)))))))))))
(assert
 (let (($x9233 (= cell_3_5 9)))
 (let (($x7605 (= cell_3_5 8)))
 (let (($x2973 (= cell_3_5 7)))
 (let (($x3248 (= cell_3_5 6)))
 (let (($x8503 (= cell_3_5 5)))
 (let (($x3692 (= cell_3_5 4)))
 (let (($x7895 (= cell_3_5 3)))
 (let (($x177 (= cell_3_5 2)))
 (let (($x9006 (= cell_3_5 1)))
 (or $x9006 $x177 $x7895 $x3692 $x8503 $x3248 $x2973 $x7605 $x9233)))))))))))
(assert
 (let (($x9836 (= cell_4_5 9)))
 (let (($x3198 (= cell_4_5 8)))
 (let (($x2421 (= cell_4_5 7)))
 (let (($x130 (= cell_4_5 6)))
 (let (($x4587 (= cell_4_5 5)))
 (let (($x1158 (= cell_4_5 4)))
 (let (($x1223 (= cell_4_5 3)))
 (let (($x8712 (= cell_4_5 2)))
 (let (($x1758 (= cell_4_5 1)))
 (or $x1758 $x8712 $x1223 $x1158 $x4587 $x130 $x2421 $x3198 $x9836)))))))))))
(assert
 (let (($x4178 (= cell_5_5 9)))
 (let (($x6325 (= cell_5_5 8)))
 (let (($x3420 (= cell_5_5 7)))
 (let (($x1184 (= cell_5_5 6)))
 (let (($x10001 (= cell_5_5 5)))
 (let (($x6603 (= cell_5_5 4)))
 (let (($x4709 (= cell_5_5 3)))
 (let (($x7245 (= cell_5_5 2)))
 (let (($x7581 (= cell_5_5 1)))
 (or $x7581 $x7245 $x4709 $x6603 $x10001 $x1184 $x3420 $x6325 $x4178)))))))))))
(assert
 (let (($x6128 (= cell_6_5 9)))
 (let (($x189 (= cell_6_5 8)))
 (let (($x2247 (= cell_6_5 7)))
 (let (($x9981 (= cell_6_5 6)))
 (let (($x2889 (= cell_6_5 5)))
 (let (($x1594 (= cell_6_5 4)))
 (let (($x8639 (= cell_6_5 3)))
 (let (($x4076 (= cell_6_5 2)))
 (let (($x6295 (= cell_6_5 1)))
 (or $x6295 $x4076 $x8639 $x1594 $x2889 $x9981 $x2247 $x189 $x6128)))))))))))
(assert
 (let (($x3201 (= cell_7_5 1)))
 (or $x3201 (= cell_7_5 2) (= cell_7_5 3) (= cell_7_5 4) (= cell_7_5 5) (= cell_7_5 6) (= cell_7_5 7) (= cell_7_5 8) (= cell_7_5 9))))
(assert
 (let (($x9282 (= cell_8_5 1)))
 (or $x9282 (= cell_8_5 2) (= cell_8_5 3) (= cell_8_5 4) (= cell_8_5 5) (= cell_8_5 6) (= cell_8_5 7) (= cell_8_5 8) (= cell_8_5 9))))
(assert
 (let (($x1367 (= cell_9_5 9)))
 (let (($x7866 (= cell_9_5 8)))
 (let (($x5761 (= cell_9_5 7)))
 (let (($x8544 (= cell_9_5 6)))
 (let (($x964 (= cell_9_5 5)))
 (let (($x5892 (= cell_9_5 4)))
 (let (($x5136 (= cell_9_5 3)))
 (let (($x6267 (= cell_9_5 2)))
 (let (($x9075 (= cell_9_5 1)))
 (or $x9075 $x6267 $x5136 $x5892 $x964 $x8544 $x5761 $x7866 $x1367)))))))))))
(assert
 (let (($x5607 (= cell_1_6 9)))
 (let (($x7078 (= cell_1_6 8)))
 (let (($x6106 (= cell_1_6 7)))
 (let (($x4131 (= cell_1_6 6)))
 (let (($x4614 (= cell_1_6 5)))
 (let (($x9328 (= cell_1_6 4)))
 (let (($x5912 (= cell_1_6 3)))
 (let (($x4380 (= cell_1_6 2)))
 (let (($x5730 (= cell_1_6 1)))
 (or $x5730 $x4380 $x5912 $x9328 $x4614 $x4131 $x6106 $x7078 $x5607)))))))))))
(assert
 (let (($x9938 (= cell_2_6 2)))
 (or (= cell_2_6 1) $x9938 (= cell_2_6 3) (= cell_2_6 4) (= cell_2_6 5) (= cell_2_6 6) (= cell_2_6 7) (= cell_2_6 8) (= cell_2_6 9))))
(assert
 (let (($x5906 (= cell_3_6 9)))
 (let (($x5629 (= cell_3_6 8)))
 (let (($x3993 (= cell_3_6 7)))
 (let (($x9516 (= cell_3_6 6)))
 (let (($x8287 (= cell_3_6 5)))
 (let (($x5681 (= cell_3_6 4)))
 (let (($x3631 (= cell_3_6 3)))
 (let (($x159 (= cell_3_6 2)))
 (let (($x1051 (= cell_3_6 1)))
 (or $x1051 $x159 $x3631 $x5681 $x8287 $x9516 $x3993 $x5629 $x5906)))))))))))
(assert
 (let (($x9709 (= cell_4_6 1)))
 (or $x9709 (= cell_4_6 2) (= cell_4_6 3) (= cell_4_6 4) (= cell_4_6 5) (= cell_4_6 6) (= cell_4_6 7) (= cell_4_6 8) (= cell_4_6 9))))
(assert
 (let (($x5314 (= cell_5_6 9)))
 (let (($x6243 (= cell_5_6 8)))
 (let (($x4304 (= cell_5_6 7)))
 (let (($x6927 (= cell_5_6 6)))
 (let (($x784 (= cell_5_6 5)))
 (let (($x9677 (= cell_5_6 4)))
 (let (($x8498 (= cell_5_6 3)))
 (let (($x5469 (= cell_5_6 2)))
 (let (($x2092 (= cell_5_6 1)))
 (or $x2092 $x5469 $x8498 $x9677 $x784 $x6927 $x4304 $x6243 $x5314)))))))))))
(assert
 (let (($x2879 (= cell_6_6 2)))
 (let (($x7430 (= cell_6_6 1)))
 (or $x7430 $x2879 (= cell_6_6 3) (= cell_6_6 4) (= cell_6_6 5) (= cell_6_6 6) (= cell_6_6 7) (= cell_6_6 8) (= cell_6_6 9)))))
(assert
 (let (($x6610 (= cell_7_6 2)))
 (let (($x2307 (= cell_7_6 1)))
 (or $x2307 $x6610 (= cell_7_6 3) (= cell_7_6 4) (= cell_7_6 5) (= cell_7_6 6) (= cell_7_6 7) (= cell_7_6 8) (= cell_7_6 9)))))
(assert
 (let (($x3695 (= cell_8_6 2)))
 (let (($x812 (= cell_8_6 1)))
 (or $x812 $x3695 (= cell_8_6 3) (= cell_8_6 4) (= cell_8_6 5) (= cell_8_6 6) (= cell_8_6 7) (= cell_8_6 8) (= cell_8_6 9)))))
(assert
 (let (($x5052 (= cell_9_6 9)))
 (let (($x3003 (= cell_9_6 8)))
 (let (($x7088 (= cell_9_6 7)))
 (let (($x4678 (= cell_9_6 6)))
 (let (($x5401 (= cell_9_6 5)))
 (let (($x7125 (= cell_9_6 4)))
 (let (($x6928 (= cell_9_6 3)))
 (let (($x2312 (= cell_9_6 2)))
 (let (($x2782 (= cell_9_6 1)))
 (or $x2782 $x2312 $x6928 $x7125 $x5401 $x4678 $x7088 $x3003 $x5052)))))))))))
(assert
 (let (($x1166 (= cell_1_7 9)))
 (let (($x890 (= cell_1_7 8)))
 (let (($x2132 (= cell_1_7 7)))
 (let (($x9554 (= cell_1_7 6)))
 (let (($x7115 (= cell_1_7 5)))
 (let (($x3383 (= cell_1_7 4)))
 (let (($x9092 (= cell_1_7 3)))
 (let (($x8008 (= cell_1_7 2)))
 (let (($x1323 (= cell_1_7 1)))
 (or $x1323 $x8008 $x9092 $x3383 $x7115 $x9554 $x2132 $x890 $x1166)))))))))))
(assert
 (let (($x6143 (= cell_2_7 9)))
 (let (($x2620 (= cell_2_7 8)))
 (let (($x943 (= cell_2_7 7)))
 (let (($x3419 (= cell_2_7 6)))
 (let (($x6750 (= cell_2_7 5)))
 (let (($x4415 (= cell_2_7 4)))
 (let (($x4335 (= cell_2_7 3)))
 (let (($x9544 (= cell_2_7 2)))
 (let (($x6514 (= cell_2_7 1)))
 (or $x6514 $x9544 $x4335 $x4415 $x6750 $x3419 $x943 $x2620 $x6143)))))))))))
(assert
 (let (($x5112 (= cell_3_7 9)))
 (let (($x190 (= cell_3_7 8)))
 (let (($x7584 (= cell_3_7 7)))
 (let (($x240 (= cell_3_7 6)))
 (let (($x4414 (= cell_3_7 5)))
 (let (($x3386 (= cell_3_7 4)))
 (let (($x2409 (= cell_3_7 3)))
 (let (($x510 (= cell_3_7 2)))
 (let (($x6859 (= cell_3_7 1)))
 (or $x6859 $x510 $x2409 $x3386 $x4414 $x240 $x7584 $x190 $x5112)))))))))))
(assert
 (let (($x4897 (= cell_4_7 9)))
 (let (($x8370 (= cell_4_7 8)))
 (let (($x1681 (= cell_4_7 7)))
 (let (($x5350 (= cell_4_7 6)))
 (let (($x4976 (= cell_4_7 5)))
 (let (($x2691 (= cell_4_7 4)))
 (let (($x4448 (= cell_4_7 3)))
 (let (($x4703 (= cell_4_7 2)))
 (let (($x561 (= cell_4_7 1)))
 (or $x561 $x4703 $x4448 $x2691 $x4976 $x5350 $x1681 $x8370 $x4897)))))))))))
(assert
 (let (($x4712 (= cell_5_7 9)))
 (let (($x5237 (= cell_5_7 8)))
 (let (($x7671 (= cell_5_7 7)))
 (let (($x25 (= cell_5_7 6)))
 (let (($x7159 (= cell_5_7 5)))
 (let (($x7250 (= cell_5_7 4)))
 (let (($x9332 (= cell_5_7 3)))
 (let (($x7590 (= cell_5_7 2)))
 (let (($x10127 (= cell_5_7 1)))
 (or $x10127 $x7590 $x9332 $x7250 $x7159 $x25 $x7671 $x5237 $x4712)))))))))))
(assert
 (let (($x5021 (= cell_6_7 9)))
 (let (($x6424 (= cell_6_7 8)))
 (let (($x9583 (= cell_6_7 7)))
 (let (($x8897 (= cell_6_7 6)))
 (let (($x8505 (= cell_6_7 5)))
 (let (($x1695 (= cell_6_7 4)))
 (let (($x3451 (= cell_6_7 3)))
 (let (($x49 (= cell_6_7 2)))
 (let (($x6655 (= cell_6_7 1)))
 (or $x6655 $x49 $x3451 $x1695 $x8505 $x8897 $x9583 $x6424 $x5021)))))))))))
(assert
 (let (($x155 (= cell_7_7 9)))
 (let (($x5361 (= cell_7_7 8)))
 (let (($x5868 (= cell_7_7 7)))
 (let (($x6805 (= cell_7_7 6)))
 (let (($x6786 (= cell_7_7 5)))
 (let (($x1801 (= cell_7_7 4)))
 (let (($x7223 (= cell_7_7 3)))
 (let (($x1446 (= cell_7_7 2)))
 (let (($x8139 (= cell_7_7 1)))
 (or $x8139 $x1446 $x7223 $x1801 $x6786 $x6805 $x5868 $x5361 $x155)))))))))))
(assert
 (let (($x8176 (= cell_8_7 9)))
 (let (($x4205 (= cell_8_7 8)))
 (let (($x7350 (= cell_8_7 7)))
 (let (($x2977 (= cell_8_7 6)))
 (let (($x8643 (= cell_8_7 5)))
 (let (($x5559 (= cell_8_7 4)))
 (let (($x4811 (= cell_8_7 3)))
 (let (($x5326 (= cell_8_7 2)))
 (let (($x7534 (= cell_8_7 1)))
 (or $x7534 $x5326 $x4811 $x5559 $x8643 $x2977 $x7350 $x4205 $x8176)))))))))))
(assert
 (let (($x7835 (= cell_9_7 1)))
 (or $x7835 (= cell_9_7 2) (= cell_9_7 3) (= cell_9_7 4) (= cell_9_7 5) (= cell_9_7 6) (= cell_9_7 7) (= cell_9_7 8) (= cell_9_7 9))))
(assert
 (let (($x8675 (= cell_1_8 9)))
 (let (($x9055 (= cell_1_8 8)))
 (let (($x1326 (= cell_1_8 7)))
 (let (($x2166 (= cell_1_8 6)))
 (let (($x4729 (= cell_1_8 5)))
 (let (($x6264 (= cell_1_8 4)))
 (let (($x6140 (= cell_1_8 3)))
 (let (($x3010 (= cell_1_8 2)))
 (let (($x5609 (= cell_1_8 1)))
 (or $x5609 $x3010 $x6140 $x6264 $x4729 $x2166 $x1326 $x9055 $x8675)))))))))))
(assert
 (let (($x868 (= cell_2_8 1)))
 (or $x868 (= cell_2_8 2) (= cell_2_8 3) (= cell_2_8 4) (= cell_2_8 5) (= cell_2_8 6) (= cell_2_8 7) (= cell_2_8 8) (= cell_2_8 9))))
(assert
 (let (($x5591 (= cell_3_8 2)))
 (or (= cell_3_8 1) $x5591 (= cell_3_8 3) (= cell_3_8 4) (= cell_3_8 5) (= cell_3_8 6) (= cell_3_8 7) (= cell_3_8 8) (= cell_3_8 9))))
(assert
 (let (($x7886 (= cell_4_8 9)))
 (let (($x856 (= cell_4_8 8)))
 (let (($x1290 (= cell_4_8 7)))
 (let (($x2533 (= cell_4_8 6)))
 (let (($x2293 (= cell_4_8 5)))
 (let (($x5773 (= cell_4_8 4)))
 (let (($x4144 (= cell_4_8 3)))
 (let (($x7653 (= cell_4_8 2)))
 (let (($x8834 (= cell_4_8 1)))
 (or $x8834 $x7653 $x4144 $x5773 $x2293 $x2533 $x1290 $x856 $x7886)))))))))))
(assert
 (let (($x9034 (= cell_5_8 9)))
 (let (($x5815 (= cell_5_8 8)))
 (let (($x4830 (= cell_5_8 7)))
 (let (($x3543 (= cell_5_8 6)))
 (let (($x6604 (= cell_5_8 5)))
 (let (($x2121 (= cell_5_8 4)))
 (let (($x8906 (= cell_5_8 3)))
 (let (($x1484 (= cell_5_8 2)))
 (let (($x4277 (= cell_5_8 1)))
 (or $x4277 $x1484 $x8906 $x2121 $x6604 $x3543 $x4830 $x5815 $x9034)))))))))))
(assert
 (let (($x7319 (= cell_6_8 2)))
 (let (($x4321 (= cell_6_8 1)))
 (or $x4321 $x7319 (= cell_6_8 3) (= cell_6_8 4) (= cell_6_8 5) (= cell_6_8 6) (= cell_6_8 7) (= cell_6_8 8) (= cell_6_8 9)))))
(assert
 (let (($x2347 (= cell_7_8 9)))
 (let (($x6864 (= cell_7_8 8)))
 (let (($x7911 (= cell_7_8 7)))
 (let (($x3948 (= cell_7_8 6)))
 (let (($x1440 (= cell_7_8 5)))
 (let (($x10052 (= cell_7_8 4)))
 (let (($x2500 (= cell_7_8 3)))
 (let (($x342 (= cell_7_8 2)))
 (let (($x2114 (= cell_7_8 1)))
 (or $x2114 $x342 $x2500 $x10052 $x1440 $x3948 $x7911 $x6864 $x2347)))))))))))
(assert
 (let (($x5922 (= cell_8_8 9)))
 (let (($x2711 (= cell_8_8 8)))
 (let (($x10282 (= cell_8_8 7)))
 (let (($x5579 (= cell_8_8 6)))
 (let (($x24 (= cell_8_8 5)))
 (let (($x4129 (= cell_8_8 4)))
 (let (($x5473 (= cell_8_8 3)))
 (let (($x264 (= cell_8_8 2)))
 (let (($x5842 (= cell_8_8 1)))
 (or $x5842 $x264 $x5473 $x4129 $x24 $x5579 $x10282 $x2711 $x5922)))))))))))
(assert
 (let (($x3976 (= cell_9_8 2)))
 (let (($x88 (= cell_9_8 1)))
 (or $x88 $x3976 (= cell_9_8 3) (= cell_9_8 4) (= cell_9_8 5) (= cell_9_8 6) (= cell_9_8 7) (= cell_9_8 8) (= cell_9_8 9)))))
(assert
 (let (($x6429 (= cell_1_9 9)))
 (let (($x4349 (= cell_1_9 8)))
 (let (($x399 (= cell_1_9 7)))
 (let (($x1551 (= cell_1_9 6)))
 (let (($x7389 (= cell_1_9 5)))
 (let (($x8741 (= cell_1_9 4)))
 (let (($x7740 (= cell_1_9 3)))
 (let (($x712 (= cell_1_9 2)))
 (let (($x6184 (= cell_1_9 1)))
 (or $x6184 $x712 $x7740 $x8741 $x7389 $x1551 $x399 $x4349 $x6429)))))))))))
(assert
 (let (($x6721 (= cell_2_9 9)))
 (let (($x6230 (= cell_2_9 8)))
 (let (($x2172 (= cell_2_9 7)))
 (let (($x8015 (= cell_2_9 6)))
 (let (($x5335 (= cell_2_9 5)))
 (let (($x9585 (= cell_2_9 4)))
 (let (($x8034 (= cell_2_9 3)))
 (let (($x4225 (= cell_2_9 2)))
 (let (($x74 (= cell_2_9 1)))
 (or $x74 $x4225 $x8034 $x9585 $x5335 $x8015 $x2172 $x6230 $x6721)))))))))))
(assert
 (let (($x1730 (= cell_3_9 9)))
 (let (($x5549 (= cell_3_9 8)))
 (let (($x6675 (= cell_3_9 7)))
 (let (($x2510 (= cell_3_9 6)))
 (let (($x3951 (= cell_3_9 5)))
 (let (($x8243 (= cell_3_9 4)))
 (let (($x4476 (= cell_3_9 3)))
 (let (($x4982 (= cell_3_9 2)))
 (let (($x6328 (= cell_3_9 1)))
 (or $x6328 $x4982 $x4476 $x8243 $x3951 $x2510 $x6675 $x5549 $x1730)))))))))))
(assert
 (let (($x7807 (= cell_4_9 2)))
 (or (= cell_4_9 1) $x7807 (= cell_4_9 3) (= cell_4_9 4) (= cell_4_9 5) (= cell_4_9 6) (= cell_4_9 7) (= cell_4_9 8) (= cell_4_9 9))))
(assert
 (let (($x4149 (= cell_5_9 1)))
 (or $x4149 (= cell_5_9 2) (= cell_5_9 3) (= cell_5_9 4) (= cell_5_9 5) (= cell_5_9 6) (= cell_5_9 7) (= cell_5_9 8) (= cell_5_9 9))))
(assert
 (let (($x10350 (= cell_6_9 2)))
 (let (($x109 (= cell_6_9 1)))
 (or $x109 $x10350 (= cell_6_9 3) (= cell_6_9 4) (= cell_6_9 5) (= cell_6_9 6) (= cell_6_9 7) (= cell_6_9 8) (= cell_6_9 9)))))
(assert
 (let (($x87 (= cell_7_9 9)))
 (let (($x8531 (= cell_7_9 8)))
 (let (($x10210 (= cell_7_9 7)))
 (let (($x8082 (= cell_7_9 6)))
 (let (($x1356 (= cell_7_9 5)))
 (let (($x9518 (= cell_7_9 4)))
 (let (($x5278 (= cell_7_9 3)))
 (let (($x9814 (= cell_7_9 2)))
 (let (($x10149 (= cell_7_9 1)))
 (or $x10149 $x9814 $x5278 $x9518 $x1356 $x8082 $x10210 $x8531 $x87)))))))))))
(assert
 (let (($x8768 (= cell_8_9 9)))
 (let (($x9679 (= cell_8_9 8)))
 (let (($x9676 (= cell_8_9 7)))
 (let (($x4895 (= cell_8_9 6)))
 (let (($x7533 (= cell_8_9 5)))
 (let (($x9699 (= cell_8_9 4)))
 (let (($x8004 (= cell_8_9 3)))
 (let (($x7436 (= cell_8_9 2)))
 (let (($x5631 (= cell_8_9 1)))
 (or $x5631 $x7436 $x8004 $x9699 $x7533 $x4895 $x9676 $x9679 $x8768)))))))))))
(assert
 (let (($x7113 (= cell_9_9 2)))
 (let (($x7898 (= cell_9_9 1)))
 (or $x7898 $x7113 (= cell_9_9 3) (= cell_9_9 4) (= cell_9_9 5) (= cell_9_9 6) (= cell_9_9 7) (= cell_9_9 8) (= cell_9_9 9)))))
(assert
 (and (distinct cell_1_1 cell_1_2 cell_1_3 cell_1_4 cell_1_5 cell_1_6 cell_1_7 cell_1_8 cell_1_9) true))
(assert
 (and (distinct cell_2_1 cell_2_2 cell_2_3 cell_2_4 cell_2_5 cell_2_6 cell_2_7 cell_2_8 cell_2_9) true))
(assert
 (and (distinct cell_3_1 cell_3_2 cell_3_3 cell_3_4 cell_3_5 cell_3_6 cell_3_7 cell_3_8 cell_3_9) true))
(assert
 (and (distinct cell_4_1 cell_4_2 cell_4_3 cell_4_4 cell_4_5 cell_4_6 cell_4_7 cell_4_8 cell_4_9) true))
(assert
 (and (distinct cell_5_1 cell_5_2 cell_5_3 cell_5_4 cell_5_5 cell_5_6 cell_5_7 cell_5_8 cell_5_9) true))
(assert
 (and (distinct cell_6_1 cell_6_2 cell_6_3 cell_6_4 cell_6_5 cell_6_6 cell_6_7 cell_6_8 cell_6_9) true))
(assert
 (and (distinct cell_7_1 cell_7_2 cell_7_3 cell_7_4 cell_7_5 cell_7_6 cell_7_7 cell_7_8 cell_7_9) true))
(assert
 (and (distinct cell_8_1 cell_8_2 cell_8_3 cell_8_4 cell_8_5 cell_8_6 cell_8_7 cell_8_8 cell_8_9) true))
(assert
 (and (distinct cell_9_1 cell_9_2 cell_9_3 cell_9_4 cell_9_5 cell_9_6 cell_9_7 cell_9_8 cell_9_9) true))
(assert
 (and (distinct cell_1_1 cell_2_1 cell_3_1 cell_4_1 cell_5_1 cell_6_1 cell_7_1 cell_8_1 cell_9_1) true))
(assert
 (and (distinct cell_1_2 cell_2_2 cell_3_2 cell_4_2 cell_5_2 cell_6_2 cell_7_2 cell_8_2 cell_9_2) true))
(assert
 (and (distinct cell_1_3 cell_2_3 cell_3_3 cell_4_3 cell_5_3 cell_6_3 cell_7_3 cell_8_3 cell_9_3) true))
(assert
 (and (distinct cell_1_4 cell_2_4 cell_3_4 cell_4_4 cell_5_4 cell_6_4 cell_7_4 cell_8_4 cell_9_4) true))
(assert
 (and (distinct cell_1_5 cell_2_5 cell_3_5 cell_4_5 cell_5_5 cell_6_5 cell_7_5 cell_8_5 cell_9_5) true))
(assert
 (and (distinct cell_1_6 cell_2_6 cell_3_6 cell_4_6 cell_5_6 cell_6_6 cell_7_6 cell_8_6 cell_9_6) true))
(assert
 (and (distinct cell_1_7 cell_2_7 cell_3_7 cell_4_7 cell_5_7 cell_6_7 cell_7_7 cell_8_7 cell_9_7) true))
(assert
 (and (distinct cell_1_8 cell_2_8 cell_3_8 cell_4_8 cell_5_8 cell_6_8 cell_7_8 cell_8_8 cell_9_8) true))
(assert
 (and (distinct cell_1_9 cell_2_9 cell_3_9 cell_4_9 cell_5_9 cell_6_9 cell_7_9 cell_8_9 cell_9_9) true))
(assert
 (and (distinct cell_1_1 cell_1_2 cell_1_3 cell_2_1 cell_2_2 cell_2_3 cell_3_1 cell_3_2 cell_3_3) true))
(assert
 (and (distinct cell_1_4 cell_1_5 cell_1_6 cell_2_4 cell_2_5 cell_2_6 cell_3_4 cell_3_5 cell_3_6) true))
(assert
 (and (distinct cell_1_7 cell_1_8 cell_1_9 cell_2_7 cell_2_8 cell_2_9 cell_3_7 cell_3_8 cell_3_9) true))
(assert
 (and (distinct cell_4_1 cell_4_2 cell_4_3 cell_5_1 cell_5_2 cell_5_3 cell_6_1 cell_6_2 cell_6_3) true))
(assert
 (and (distinct cell_4_4 cell_4_5 cell_4_6 cell_5_4 cell_5_5 cell_5_6 cell_6_4 cell_6_5 cell_6_6) true))
(assert
 (and (distinct cell_4_7 cell_4_8 cell_4_9 cell_5_7 cell_5_8 cell_5_9 cell_6_7 cell_6_8 cell_6_9) true))
(assert
 (and (distinct cell_7_1 cell_7_2 cell_7_3 cell_8_1 cell_8_2 cell_8_3 cell_9_1 cell_9_2 cell_9_3) true))
(assert
 (and (distinct cell_7_4 cell_7_5 cell_7_6 cell_8_4 cell_8_5 cell_8_6 cell_9_4 cell_9_5 cell_9_6) true))
(assert
 (and (distinct cell_7_7 cell_7_8 cell_7_9 cell_8_7 cell_8_8 cell_8_9 cell_9_7 cell_9_8 cell_9_9) true))
(assert
 (let (($x3568 (and (distinct cell_5_9 cell_6_8 cell_7_7 cell_8_6) true)))
 (let (($x8792 (and (distinct cell_2_9 cell_3_8 cell_4_7 cell_5_6 cell_6_5 cell_7_4 cell_8_3 cell_9_2) true)))
 (let (($x8127 (and (distinct cell_1_8 cell_2_7 cell_3_6 cell_4_5 cell_5_4 cell_6_3 cell_7_2 cell_8_1) true)))
 (let (($x5040 (and (distinct cell_1_5 cell_2_4 cell_3_3 cell_4_2) true)))
 (let (($x8136 (and (distinct cell_5_1 cell_6_2 cell_7_3 cell_8_4) true)))
 (let (($x6362 (and (distinct cell_2_1 cell_3_2 cell_4_3 cell_5_4 cell_6_5 cell_7_6 cell_8_7 cell_9_8) true)))
 (let (($x8793 (and (distinct cell_1_2 cell_2_3 cell_3_4 cell_4_5 cell_5_6 cell_6_7 cell_7_8 cell_8_9) true)))
 (let (($x9399 (and (distinct cell_1_5 cell_2_6 cell_3_7 cell_4_8) true)))
 (and $x9399 $x8793 $x6362 $x8136 $x5040 $x8127 $x8792 $x3568))))))))))
(assert
 (= cell_6_4 2))
(check-sat)
